presolving:
(round 1, fast)       1 del vars, 1 del conss, 0 add conss, 0 chg bounds, 0 chg sides, 0 chg coeffs, 0 upgd conss, 0 impls, 682 clqs
(round 2, exhaustive) 1 del vars, 1 del conss, 0 add conss, 0 chg bounds, 0 chg sides, 0 chg coeffs, 682 upgd conss, 0 impls, 682 clqs
   (0.1s) probing: 770/1269 (60.7%) - 0 fixings, 0 aggregations, 352 implications, 0 bound changes
   (0.1s) probing aborted: 50/50 successive totally useless probings
   (0.1s) symmetry computation started: requiring (bin +, int +, cont +), (fixed: bin -, int -, cont -)
   (0.1s) no symmetry present (symcode time: 0.00)
presolving (3 rounds: 3 fast, 2 medium, 2 exhaustive):
 1 deleted vars, 1 deleted constraints, 0 added constraints, 0 tightened bounds, 0 added holes, 0 changed sides, 0 changed coefficients
 0 implications, 1034 cliques
presolved problem has 1269 variables (1269 bin, 0 int, 0 impl, 0 cont) and 1140 constraints
    682 constraints of type <setppc>
    458 constraints of type <linear>
transformed objective value is always integral (scale: 1)
Presolving Time: 0.05

 time | node  | left  |LP iter|LP it/n|mem/heur|mdpt |vars |cons |rows |cuts |sepa|confs|strbr|  dualbound   | primalbound  |  gap   | compl. 
* 0.1s|     1 |     0 |   311 |     - |    LP  |   0 |1269 |1173 |1140 |   0 |  0 |  32 |   0 | 3.680000e+02 | 3.680000e+02 |   0.00%| unknown
  0.1s|     1 |     0 |   311 |     - |    13M |   0 |1269 |1173 |1140 |   0 |  0 |  32 |   0 | 3.680000e+02 | 3.680000e+02 |   0.00%| unknown

SCIP Status        : problem is solved [optimal solution found]
Solving Time (sec) : 0.07
Solving Nodes      : 1
Primal Bound       : +3.68000000000000e+02 (1 solutions)
Dual Bound         : +3.68000000000000e+02
Gap                : 0.00 %
Run time: 0.12510085105895996 SEC

Solver time: 0.06983199999999999
Total time: 0.119724
Reading time: 0.0
Presolving time: 0.050064
Optimal value: 368.0
Solution:
x2_2_22 = 1.0
x2_13_14 = 1.0
x2_14_15 = 1.0
x2_15_16 = 1.0
x2_16_17 = 1.0
x2_17_255 = 1.0
x2_22_23 = 1.0
x2_23_13 = 1.0
x24_24_25 = 1.0
x24_25_48 = 1.0
x24_48_71 = 1.0
x24_71_94 = 1.0
x24_94_117 = 1.0
x24_117_140 = 1.0
x24_140_163 = 1.0
x24_163_183 = 1.0
x24_174_175 = 1.0
x24_175_176 = 1.0
x24_176_177 = 1.0
x24_177_254 = 1.0
x24_183_184 = 1.0
x24_184_174 = 1.0
